Ca10 P6 H2 O26
1.0
        9.3968544006         0.0000000000         0.0000000000
       -4.6984272003         8.1379146266         0.0000000000
        0.0000000000         0.0000000000         6.8640255928
   Ca    P    H    O
   10    6    2   26
Direct
     0.247573610         0.993561280         0.250786440
     0.006438720         0.254012330         0.250786440
     0.333333330         0.666666670         0.001542350
     0.333333330         0.666666670         0.499204270
     0.254012330         0.247573610         0.750786440
     0.745987670         0.752426390         0.250786440
     0.666666670         0.333333330         0.501542350
     0.666666670         0.333333330         0.999204270
     0.993561280         0.745987670         0.750786440
     0.752426390         0.006438720         0.750786440
     0.031425970         0.399230030         0.751823530
     0.367804060         0.968574030         0.751823530
     0.399230030         0.367804060         0.251823530
     0.600769970         0.632195940         0.751823530
     0.632195940         0.031425970         0.251823530
     0.968574030         0.600769970         0.251823530
     0.000000000         0.000000000         0.430851880
     0.000000000         0.000000000         0.930851880
     0.259008570         0.910022690         0.934060600
     0.254321870         0.915810490         0.573285490
     0.155013050         0.670726990         0.253302120
     0.123638700         0.588605560         0.746448020
     0.084189510         0.338511380         0.573285490
     0.089977310         0.348985880         0.934060600
     0.464966860         0.876361300         0.746448020
     0.329273010         0.484286060         0.253302120
     0.515713940         0.844986950         0.253302120
     0.411394440         0.535033140         0.746448020
     0.348985880         0.259008570         0.434060600
     0.338511380         0.254321870         0.073285490
     0.651014120         0.740991430         0.934060600
     0.661488620         0.745678130         0.573285490
     0.588605560         0.464966860         0.246448020
     0.484286060         0.155013050         0.753302120
     0.670726990         0.515713940         0.753302120
     0.535033140         0.123638700         0.246448020
     0.915810490         0.661488620         0.073285490
     0.910022690         0.651014120         0.434060600
     0.876361300         0.411394440         0.246448020
     0.844986950         0.329273010         0.753302120
     0.740991430         0.089977310         0.434060600
     0.745678130         0.084189510         0.073285490
     0.000000000         0.000000000         0.289582890
     0.000000000         0.000000000         0.789582890
